20
1 0 1
2 0 255
2 1 285
3 0 51
3 1 255
3 2 281
4 0 118
4 1 67
4 2 147
4 3 287
5 0 140
5 1 96
5 2 96
5 3 211
5 4 14
6 0 297
6 2 190
6 4 118
7 0 93
7 2 254
7 3 191
7 4 223
7 6 155
8 0 92
8 1 46
8 2 49
8 3 70
8 4 247
8 5 301
8 6 169
8 7 67
9 0 216
9 1 128
9 2 248
9 3 237
9 4 18
9 5 29
9 6 31
9 7 165
9 8 139
10 1 72
10 2 262
10 3 206
10 4 53
10 5 233
10 7 184
10 8 244
10 9 115
11 0 55
11 1 50
11 3 311
11 4 210
11 6 80
11 7 251
11 8 320
12 1 125
12 2 94
12 3 12
12 4 119
12 5 125
12 6 167
12 7 84
12 9 105
12 10 103
12 11 52
13 1 2
13 2 80
13 3 178
13 4 127
13 6 150
13 7 286
13 8 262
13 9 159
13 10 312
13 11 158
13 12 284
14 0 289
14 1 137
14 2 303
14 3 249
14 4 20
14 6 167
14 7 257
14 9 124
14 10 140
14 11 260
14 12 170
14 13 81
15 0 42
15 1 75
15 2 148
15 3 37
15 4 60
15 5 92
15 6 17
15 7 97
15 8 236
15 9 145
15 10 17
15 11 244
15 12 100
15 13 289
15 14 111
16 0 89
16 1 237
16 2 136
16 3 250
16 4 293
16 5 18
16 6 45
16 7 253
16 9 153
16 10 199
16 11 124
16 12 210
16 14 194
16 15 53
17 0 252
17 1 115
17 3 243
17 4 167
17 5 126
17 6 116
17 7 113
17 8 60
17 9 18
17 10 180
17 11 145
17 12 76
17 13 151
17 14 64
17 15 135
17 16 64
18 0 23
18 1 137
18 2 178
18 3 63
18 4 163
18 5 13
18 6 14
18 7 251
18 8 91
18 9 135
18 10 50
18 11 188
18 12 13
18 13 187
18 14 255
18 16 239
18 17 174
19 0 232
19 1 157
19 2 319
19 3 126
19 4 317
19 5 176
19 6 213
19 7 60
19 8 261
19 9 221
19 10 186
19 12 130
19 13 193
19 14 191
19 15 165
19 16 21
19 17 114
19 18 7
